DIMENSION :13
NODE_COORD_SECTION
1 94.97197915118579 81.1964795374117
2 -10.292493155366131 97.37314367047517
3 -56.89815995106624 37.510754442408285
4 -20.218135495648838 -11.772961340293492
5 57.43585113228599 -22.118750710231012
6 -3.8524940419986535 88.98596335041043
7 -47.6343370552639 -81.7654423444603
8 -67.63626914665042 70.61882024412498
9 99.64177386855141 4.223605200140355
10 80.4224685751355 -10.841826787381393
11 -12.832242868575477 85.25589670487662
12 -96.50365997287822 -53.19065444927522
13 -37.759438958835666 37.49577911144405
EOF
